$ https://www.innoludic.com/2015-04-30-13-56-29/thermometers/56-rules-of-thermometers.html

letting x be 9
letting y be 12
letting step be 10
letting thermcount be 29


letting therms be [
    [  1,162, 11, 21,116, 31, 42, 41, 51],
    [ 61,167, 12, 22,115, 32, 94, 71, 52],
    [ 62,166, 13, 23,114, 33, 93, 72, 53],
    [ 63,165, 81, 24,113, 34, 92, 73, 54],
    [ 64,164, 82, 25,112, 35, 91,102,101],
    [ 65,163, 83, 26,111,214,121,131,141],
    [ 66,162, 84,152,151,213,122,132,142],
    [244,161, 85,171,202,212,123,133,181],
    [243,192,191,172,201,211,124,134,182],
    [242,221,273,173,231,232,233,135,183],
    [241,222,272,174,251,252,253,254,255],
    [261,262,271,175,281,282,283,284,285]
]

letting rowsums be [4,1,5,5,3,2]
letting colsums be [1,3,4,3,4,5]